NAME : oliver30
COMMENT : 30 cities
TYPE : TSP
DIMENSION : 30
EDGE_WEIGHT_TYPE : ATT
NODE_COORD_SECTION
5 2 99
10 4 50
6 7 64
11 13 40
12 18 40
9 18 54
8 22 60
13 24 42
14 25 38
7 25 62
3 37 84
16 41 26
4 41 94
15 44 35
17 45 21
2 54 62
1 54 67
18 58 35
30 58 69
19 62 32
24 64 60
25 68 58
23 71 44
29 71 71
28 74 78
20 82 7
22 83 46
26 83 69
27 87 76
21 91 38
EOF
